; benchmark generated from python API
(set-info :status unknown)
(declare-fun x_days () Int)
(declare-fun y_days () Int)
(assert
 (>= x_days (- 36584)))
(assert
 (<= x_days 36829))
(assert
 (>= y_days (- 36584)))
(assert
 (<= y_days 36829))
(assert
 (= x_days 7275))
(assert
 (= y_days 6910))
(assert
 (let (($x29 (or (and (= (mod 2000 4) 0) (and (distinct (mod 2000 100) 0) true)) (= (mod 2000 400) 0))))
 (let ((?x36 (ite (= 3 2) (ite $x29 31 31) (ite (= 3 1) (ite $x29 0 0) 0))))
 (let ((?x40 (ite $x29 60 59)))
 (let ((?x41 (ite (= 3 3) ?x40 ?x36)))
 (let ((?x46 (ite (= 3 4) (ite $x29 91 90) ?x41)))
 (let ((?x52 (ite (= 3 5) (ite $x29 121 120) ?x46)))
 (let ((?x58 (ite (= 3 6) (ite $x29 152 151) ?x52)))
 (let ((?x64 (ite (= 3 7) (ite $x29 182 181) ?x58)))
 (let ((?x70 (ite (= 3 8) (ite $x29 213 212) ?x64)))
 (let ((?x76 (ite (= 3 9) (ite $x29 244 243) ?x70)))
 (let ((?x82 (ite (= 3 10) (ite $x29 274 273) ?x76)))
 (let ((?x88 (ite (= 3 11) (ite $x29 305 304) ?x82)))
 (let ((?x16 (- (+ (* 365 (- 2000 1)) (div (- 2000 1) 4)) (div (- 2000 1) 100))))
 (let ((?x95 (+ (+ ?x16 (div (- 2000 1) 400)) (ite (= 3 12) (ite $x29 335 334) ?x88))))
 (let ((?x97 (+ ?x95 (- 1 1))))
 (let ((?x718 (+ x_days ?x97)))
 (let ((?x644 (mod ?x718 146097)))
 (let ((?x451 (div ?x644 36524)))
 (let ((?x284 (ite (<= 4 ?x451) 3 ?x451)))
 (let ((?x100 (- ?x644 (* ?x284 36524))))
 (let ((?x135 (mod ?x100 1461)))
 (let ((?x552 (div ?x135 365)))
 (let ((?x333 (ite (<= 4 ?x552) 3 ?x552)))
 (let ((?x289 (+ (+ (* (div ?x718 146097) 400) (* ?x284 100)) (* (div ?x100 1461) 4))))
 (let ((?x335 (+ (+ ?x289 ?x333) 1)))
 (let (($x408 (or (and (= (mod ?x335 4) 0) (and (distinct (mod ?x335 100) 0) true)) (= (mod ?x335 400) 0))))
 (let ((?x473 (- ?x135 (* ?x333 365))))
 (let ((?x424 (ite $x408 31 31)))
 (let (($x469 (>= ?x473 ?x424)))
 (let ((?x811 (ite $x469 (+ (- ?x473 ?x424) 1) (+ (- ?x473 (ite $x408 0 0)) 1))))
 (let ((?x120 (ite $x408 60 59)))
 (let (($x534 (>= ?x473 ?x120)))
 (let ((?x467 (ite $x408 91 90)))
 (let (($x494 (>= ?x473 ?x467)))
 (let ((?x592 (ite $x494 (+ (- ?x473 ?x467) 1) (ite $x534 (+ (- ?x473 ?x120) 1) ?x811))))
 (let ((?x1191 (ite $x408 121 120)))
 (let (($x764 (>= ?x473 ?x1191)))
 (let ((?x442 (ite $x408 152 151)))
 (let (($x603 (>= ?x473 ?x442)))
 (let ((?x363 (ite $x603 (+ (- ?x473 ?x442) 1) (ite $x764 (+ (- ?x473 ?x1191) 1) ?x592))))
 (let ((?x345 (ite $x408 182 181)))
 (let (($x539 (>= ?x473 ?x345)))
 (let ((?x520 (ite $x408 213 212)))
 (let (($x600 (>= ?x473 ?x520)))
 (let ((?x813 (ite $x600 (+ (- ?x473 ?x520) 1) (ite $x539 (+ (- ?x473 ?x345) 1) ?x363))))
 (let ((?x372 (ite $x408 244 243)))
 (let (($x588 (>= ?x473 ?x372)))
 (let ((?x367 (ite $x408 274 273)))
 (let (($x493 (>= ?x473 ?x367)))
 (let ((?x593 (ite $x493 (+ (- ?x473 ?x367) 1) (ite $x588 (+ (- ?x473 ?x372) 1) ?x813))))
 (let ((?x567 (ite $x408 305 304)))
 (let (($x663 (>= ?x473 ?x567)))
 (let ((?x746 (ite $x408 335 334)))
 (let (($x519 (>= ?x473 ?x746)))
 (let ((?x743 (ite $x519 (+ (- ?x473 ?x746) 1) (ite $x663 (+ (- ?x473 ?x567) 1) ?x593))))
 (let ((?x793 (+ (* 0 12) 1)))
 (let ((?x2428 (ite $x764 5 (ite $x494 4 (ite $x534 3 (ite $x469 2 1))))))
 (let ((?x505 (ite $x588 9 (ite $x600 8 (ite $x539 7 (ite $x603 6 ?x2428))))))
 (let ((?x838 (- (+ (ite $x519 12 (ite $x663 11 (ite $x493 10 ?x505))) ?x793) 1)))
 (let ((?x601 (+ (mod ?x838 12) 1)))
 (let ((?x489 (ite (or (= ?x601 4) (= ?x601 6) (= ?x601 9) (= ?x601 11)) 30 31)))
 (let (($x488 (and (= (mod (+ ?x335 (+ 0 (div ?x838 12))) 4) 0) (and (distinct (mod (+ ?x335 (+ 0 (div ?x838 12))) 100) 0) true))))
 (let (($x360 (or $x488 (= (mod (+ ?x335 (+ 0 (div ?x838 12))) 400) 0))))
 (let ((?x792 (ite (= ?x601 2) (ite $x360 29 28) ?x489)))
 (let ((?x814 (ite (> 1 ?x743) 1 (ite (> ?x743 ?x792) ?x792 ?x743))))
 (let ((?x575 (ite (> 1 ?x814) 1 (ite (> ?x814 ?x792) ?x792 ?x814))))
 (let ((?x154 (ite (= 2 ?x601) (ite $x360 31 31) (ite (= 1 ?x601) (ite $x360 0 0) 0))))
 (let ((?x138 (ite (= 4 ?x601) (ite $x360 91 90) (ite (= 3 ?x601) (ite $x360 60 59) ?x154))))
 (let ((?x573 (ite (= 6 ?x601) (ite $x360 152 151) (ite (= 5 ?x601) (ite $x360 121 120) ?x138))))
 (let ((?x406 (ite (= 8 ?x601) (ite $x360 213 212) (ite (= 7 ?x601) (ite $x360 182 181) ?x573))))
 (let ((?x615 (ite (= 10 ?x601) (ite $x360 274 273) (ite (= 9 ?x601) (ite $x360 244 243) ?x406))))
 (let ((?x113 (ite (= 12 ?x601) (ite $x360 335 334) (ite (= 11 ?x601) (ite $x360 305 304) ?x615))))
 (let ((?x201 (+ (* 365 (- (+ ?x335 (+ 0 (div ?x838 12))) 1)) (div (- (+ ?x335 (+ 0 (div ?x838 12))) 1) 4))))
 (let ((?x652 (+ (- ?x201 (div (- (+ ?x335 (+ 0 (div ?x838 12))) 1) 100)) (div (- (+ ?x335 (+ 0 (div ?x838 12))) 1) 400))))
 (let ((?x649 (+ (+ (- (+ (+ ?x652 ?x113) (- ?x575 1)) ?x97) 0) ?x97)))
 (let ((?x352 (mod ?x649 146097)))
 (let ((?x770 (div ?x352 36524)))
 (let ((?x1198 (ite (<= 4 ?x770) 3 ?x770)))
 (let ((?x2603 (- ?x352 (* ?x1198 36524))))
 (let ((?x459 (mod ?x2603 1461)))
 (let ((?x2964 (div ?x459 365)))
 (let ((?x559 (ite (<= 4 ?x2964) 3 ?x2964)))
 (let ((?x571 (+ (+ (* (div ?x649 146097) 400) (* ?x1198 100)) (* (div ?x2603 1461) 4))))
 (let ((?x498 (+ (+ ?x571 ?x559) 1)))
 (let (($x1671 (or (and (= (mod ?x498 4) 0) (and (distinct (mod ?x498 100) 0) true)) (= (mod ?x498 400) 0))))
 (let ((?x401 (- ?x459 (* ?x559 365))))
 (let ((?x681 (ite $x1671 31 31)))
 (let (($x140 (>= ?x401 ?x681)))
 (let ((?x291 (ite $x140 (+ (- ?x401 ?x681) 1) (+ (- ?x401 (ite $x1671 0 0)) 1))))
 (let ((?x844 (ite $x1671 60 59)))
 (let (($x605 (>= ?x401 ?x844)))
 (let ((?x732 (ite $x1671 91 90)))
 (let (($x570 (>= ?x401 ?x732)))
 (let ((?x2065 (ite $x570 (+ (- ?x401 ?x732) 1) (ite $x605 (+ (- ?x401 ?x844) 1) ?x291))))
 (let ((?x846 (ite $x1671 121 120)))
 (let (($x103 (>= ?x401 ?x846)))
 (let ((?x517 (ite $x1671 152 151)))
 (let (($x716 (>= ?x401 ?x517)))
 (let ((?x496 (ite $x716 (+ (- ?x401 ?x517) 1) (ite $x103 (+ (- ?x401 ?x846) 1) ?x2065))))
 (let ((?x790 (ite $x1671 182 181)))
 (let (($x150 (>= ?x401 ?x790)))
 (let ((?x2745 (ite $x1671 213 212)))
 (let (($x253 (>= ?x401 ?x2745)))
 (let ((?x190 (ite $x253 (+ (- ?x401 ?x2745) 1) (ite $x150 (+ (- ?x401 ?x790) 1) ?x496))))
 (let ((?x112 (ite $x1671 244 243)))
 (let (($x758 (>= ?x401 ?x112)))
 (let ((?x2663 (ite $x1671 274 273)))
 (let (($x831 (>= ?x401 ?x2663)))
 (let ((?x377 (ite $x831 (+ (- ?x401 ?x2663) 1) (ite $x758 (+ (- ?x401 ?x112) 1) ?x190))))
 (let ((?x439 (ite $x1671 305 304)))
 (let (($x177 (>= ?x401 ?x439)))
 (let ((?x379 (ite $x1671 335 334)))
 (let (($x2146 (>= ?x401 ?x379)))
 (let ((?x515 (ite $x2146 (+ (- ?x401 ?x379) 1) (ite $x177 (+ (- ?x401 ?x439) 1) ?x377))))
 (let (($x217 (= 0 0)))
 (let (($x738 (= (mod (ite $x217 (+ ?x335 (+ 0 (div ?x838 12))) ?x498) 400) 0)))
 (let (($x357 (and (distinct (mod (ite $x217 (+ ?x335 (+ 0 (div ?x838 12))) ?x498) 100) 0) true)))
 (let (($x282 (= (mod (ite $x217 (+ ?x335 (+ 0 (div ?x838 12))) ?x498) 4) 0)))
 (let (($x606 (or (and $x282 $x357) $x738)))
 (let ((?x1397 (ite $x103 5 (ite $x570 4 (ite $x605 3 (ite $x140 2 1))))))
 (let ((?x160 (ite $x758 9 (ite $x253 8 (ite $x150 7 (ite $x716 6 ?x1397))))))
 (let ((?x428 (ite $x217 ?x601 (ite $x2146 12 (ite $x177 11 (ite $x831 10 ?x160))))))
 (let ((?x753 (ite (= 2 ?x428) (ite $x606 31 31) (ite (= 1 ?x428) (ite $x606 0 0) 0))))
 (let ((?x2444 (ite (= 4 ?x428) (ite $x606 91 90) (ite (= 3 ?x428) (ite $x606 60 59) ?x753))))
 (let ((?x336 (ite (= 6 ?x428) (ite $x606 152 151) (ite (= 5 ?x428) (ite $x606 121 120) ?x2444))))
 (let ((?x596 (ite (= 8 ?x428) (ite $x606 213 212) (ite (= 7 ?x428) (ite $x606 182 181) ?x336))))
 (let ((?x388 (ite (= 10 ?x428) (ite $x606 274 273) (ite (= 9 ?x428) (ite $x606 244 243) ?x596))))
 (let ((?x312 (ite (= 12 ?x428) (ite $x606 335 334) (ite (= 11 ?x428) (ite $x606 305 304) ?x388))))
 (let ((?x117 (+ ?x335 (+ 0 (div ?x838 12)))))
 (let ((?x607 (ite $x217 ?x117 ?x498)))
 (let ((?x499 (- ?x607 1)))
 (let ((?x221 (+ (- (+ (* 365 ?x499) (div ?x499 4)) (div ?x499 100)) (div ?x499 400))))
 (= (- (+ (+ ?x221 ?x312) (- (ite $x217 ?x575 ?x515) 1)) ?x97) 7304))))))))))))))))))))))))))))))))))))))))))))))))))))))))))))))))))))))))))))))))))))))))))))))))))))))))))))))))))))))))))))))))))))))
(assert
 (let (($x29 (or (and (= (mod 2000 4) 0) (and (distinct (mod 2000 100) 0) true)) (= (mod 2000 400) 0))))
(let ((?x36 (ite (= 3 2) (ite $x29 31 31) (ite (= 3 1) (ite $x29 0 0) 0))))
(let ((?x40 (ite $x29 60 59)))
(let ((?x41 (ite (= 3 3) ?x40 ?x36)))
(let ((?x46 (ite (= 3 4) (ite $x29 91 90) ?x41)))
(let ((?x52 (ite (= 3 5) (ite $x29 121 120) ?x46)))
(let ((?x58 (ite (= 3 6) (ite $x29 152 151) ?x52)))
(let ((?x64 (ite (= 3 7) (ite $x29 182 181) ?x58)))
(let ((?x70 (ite (= 3 8) (ite $x29 213 212) ?x64)))
(let ((?x76 (ite (= 3 9) (ite $x29 244 243) ?x70)))
(let ((?x82 (ite (= 3 10) (ite $x29 274 273) ?x76)))
(let ((?x88 (ite (= 3 11) (ite $x29 305 304) ?x82)))
(let ((?x16 (- (+ (* 365 (- 2000 1)) (div (- 2000 1) 4)) (div (- 2000 1) 100))))
(let ((?x95 (+ (+ ?x16 (div (- 2000 1) 400)) (ite (= 3 12) (ite $x29 335 334) ?x88))))
(let ((?x97 (+ ?x95 (- 1 1))))
(let ((?x849 (+ y_days ?x97)))
(let ((?x1349 (mod ?x849 146097)))
(let ((?x2064 (div ?x1349 36524)))
(let ((?x2159 (ite (<= 4 ?x2064) 3 ?x2064)))
(let ((?x1788 (- ?x1349 (* ?x2159 36524))))
(let ((?x950 (mod ?x1788 1461)))
(let ((?x683 (div ?x950 365)))
(let ((?x620 (ite (<= 4 ?x683) 3 ?x683)))
(let ((?x861 (+ (+ (* (div ?x849 146097) 400) (* ?x2159 100)) (* (div ?x1788 1461) 4))))
(let ((?x229 (+ (+ ?x861 ?x620) 1)))
(let (($x2489 (or (and (= (mod ?x229 4) 0) (and (distinct (mod ?x229 100) 0) true)) (= (mod ?x229 400) 0))))
(let ((?x2486 (- ?x950 (* ?x620 365))))
(let ((?x553 (ite $x2489 31 31)))
(let (($x2114 (>= ?x2486 ?x553)))
(let ((?x698 (ite $x2114 (+ (- ?x2486 ?x553) 1) (+ (- ?x2486 (ite $x2489 0 0)) 1))))
(let ((?x806 (ite $x2489 60 59)))
(let (($x233 (>= ?x2486 ?x806)))
(let ((?x435 (ite $x2489 91 90)))
(let (($x1052 (>= ?x2486 ?x435)))
(let ((?x3526 (ite $x1052 (+ (- ?x2486 ?x435) 1) (ite $x233 (+ (- ?x2486 ?x806) 1) ?x698))))
(let ((?x3223 (ite $x2489 121 120)))
(let (($x3071 (>= ?x2486 ?x3223)))
(let ((?x3114 (ite $x2489 152 151)))
(let (($x2927 (>= ?x2486 ?x3114)))
(let ((?x1572 (ite $x2927 (+ (- ?x2486 ?x3114) 1) (ite $x3071 (+ (- ?x2486 ?x3223) 1) ?x3526))))
(let ((?x176 (ite $x2489 182 181)))
(let (($x123 (>= ?x2486 ?x176)))
(let ((?x490 (ite $x2489 213 212)))
(let (($x422 (>= ?x2486 ?x490)))
(let ((?x2665 (ite $x422 (+ (- ?x2486 ?x490) 1) (ite $x123 (+ (- ?x2486 ?x176) 1) ?x1572))))
(let ((?x723 (ite $x2489 244 243)))
(let (($x423 (>= ?x2486 ?x723)))
(let ((?x294 (ite $x2489 274 273)))
(let (($x1204 (>= ?x2486 ?x294)))
(let ((?x628 (ite $x1204 (+ (- ?x2486 ?x294) 1) (ite $x423 (+ (- ?x2486 ?x723) 1) ?x2665))))
(let ((?x835 (ite $x2489 305 304)))
(let (($x2968 (>= ?x2486 ?x835)))
(let ((?x712 (ite $x2489 335 334)))
(let (($x3037 (>= ?x2486 ?x712)))
(let ((?x3139 (ite $x3037 (+ (- ?x2486 ?x712) 1) (ite $x2968 (+ (- ?x2486 ?x835) 1) ?x628))))
(let ((?x793 (+ (* 0 12) 1)))
(let ((?x449 (ite $x3071 5 (ite $x1052 4 (ite $x233 3 (ite $x2114 2 1))))))
(let ((?x2967 (ite $x423 9 (ite $x422 8 (ite $x123 7 (ite $x2927 6 ?x449))))))
(let ((?x306 (- (+ (ite $x3037 12 (ite $x2968 11 (ite $x1204 10 ?x2967))) ?x793) 1)))
(let ((?x474 (+ (mod ?x306 12) 1)))
(let ((?x1777 (ite (or (= ?x474 4) (= ?x474 6) (= ?x474 9) (= ?x474 11)) 30 31)))
(let (($x545 (and (= (mod (+ ?x229 (+ 0 (div ?x306 12))) 4) 0) (and (distinct (mod (+ ?x229 (+ 0 (div ?x306 12))) 100) 0) true))))
(let (($x3507 (or $x545 (= (mod (+ ?x229 (+ 0 (div ?x306 12))) 400) 0))))
(let ((?x839 (ite (= ?x474 2) (ite $x3507 29 28) ?x1777)))
(let ((?x2934 (ite (> 1 ?x3139) 1 (ite (> ?x3139 ?x839) ?x839 ?x3139))))
(let ((?x2794 (ite (> 1 ?x2934) 1 (ite (> ?x2934 ?x839) ?x839 ?x2934))))
(let ((?x624 (ite (= 2 ?x474) (ite $x3507 31 31) (ite (= 1 ?x474) (ite $x3507 0 0) 0))))
(let ((?x673 (ite (= 4 ?x474) (ite $x3507 91 90) (ite (= 3 ?x474) (ite $x3507 60 59) ?x624))))
(let ((?x438 (ite (= 6 ?x474) (ite $x3507 152 151) (ite (= 5 ?x474) (ite $x3507 121 120) ?x673))))
(let ((?x283 (ite (= 8 ?x474) (ite $x3507 213 212) (ite (= 7 ?x474) (ite $x3507 182 181) ?x438))))
(let ((?x2744 (ite (= 10 ?x474) (ite $x3507 274 273) (ite (= 9 ?x474) (ite $x3507 244 243) ?x283))))
(let ((?x175 (ite (= 12 ?x474) (ite $x3507 335 334) (ite (= 11 ?x474) (ite $x3507 305 304) ?x2744))))
(let ((?x421 (+ (* 365 (- (+ ?x229 (+ 0 (div ?x306 12))) 1)) (div (- (+ ?x229 (+ 0 (div ?x306 12))) 1) 4))))
(let ((?x637 (+ (- ?x421 (div (- (+ ?x229 (+ 0 (div ?x306 12))) 1) 100)) (div (- (+ ?x229 (+ 0 (div ?x306 12))) 1) 400))))
(let ((?x736 (+ (+ (- (+ (+ ?x637 ?x175) (- ?x2794 1)) ?x97) 0) ?x97)))
(let ((?x1761 (mod ?x736 146097)))
(let ((?x3225 (div ?x1761 36524)))
(let ((?x734 (ite (<= 4 ?x3225) 3 ?x3225)))
(let ((?x1192 (- ?x1761 (* ?x734 36524))))
(let ((?x2648 (mod ?x1192 1461)))
(let ((?x548 (div ?x2648 365)))
(let ((?x163 (ite (<= 4 ?x548) 3 ?x548)))
(let ((?x1085 (+ (+ (* (div ?x736 146097) 400) (* ?x734 100)) (* (div ?x1192 1461) 4))))
(let ((?x461 (+ (+ ?x1085 ?x163) 1)))
(let (($x258 (or (and (= (mod ?x461 4) 0) (and (distinct (mod ?x461 100) 0) true)) (= (mod ?x461 400) 0))))
(let ((?x2553 (- ?x2648 (* ?x163 365))))
(let ((?x1021 (ite $x258 31 31)))
(let (($x1931 (>= ?x2553 ?x1021)))
(let ((?x399 (ite $x1931 (+ (- ?x2553 ?x1021) 1) (+ (- ?x2553 (ite $x258 0 0)) 1))))
(let ((?x1546 (ite $x258 60 59)))
(let (($x376 (>= ?x2553 ?x1546)))
(let ((?x1941 (ite $x258 91 90)))
(let (($x777 (>= ?x2553 ?x1941)))
(let ((?x197 (ite $x777 (+ (- ?x2553 ?x1941) 1) (ite $x376 (+ (- ?x2553 ?x1546) 1) ?x399))))
(let ((?x651 (ite $x258 121 120)))
(let (($x2978 (>= ?x2553 ?x651)))
(let ((?x235 (ite $x258 152 151)))
(let (($x429 (>= ?x2553 ?x235)))
(let ((?x244 (ite $x429 (+ (- ?x2553 ?x235) 1) (ite $x2978 (+ (- ?x2553 ?x651) 1) ?x197))))
(let ((?x480 (ite $x258 182 181)))
(let (($x1170 (>= ?x2553 ?x480)))
(let ((?x856 (ite $x258 213 212)))
(let (($x623 (>= ?x2553 ?x856)))
(let ((?x676 (ite $x623 (+ (- ?x2553 ?x856) 1) (ite $x1170 (+ (- ?x2553 ?x480) 1) ?x244))))
(let ((?x646 (ite $x258 244 243)))
(let (($x420 (>= ?x2553 ?x646)))
(let ((?x703 (ite $x258 274 273)))
(let (($x1781 (>= ?x2553 ?x703)))
(let ((?x153 (ite $x1781 (+ (- ?x2553 ?x703) 1) (ite $x420 (+ (- ?x2553 ?x646) 1) ?x676))))
(let ((?x767 (ite $x258 305 304)))
(let (($x2772 (>= ?x2553 ?x767)))
(let ((?x989 (ite $x258 335 334)))
(let (($x2536 (>= ?x2553 ?x989)))
(let ((?x2495 (ite $x2536 (+ (- ?x2553 ?x989) 1) (ite $x2772 (+ (- ?x2553 ?x767) 1) ?x153))))
(let (($x217 (= 0 0)))
(let (($x2797 (= (mod (ite $x217 (+ ?x229 (+ 0 (div ?x306 12))) ?x461) 400) 0)))
(let (($x3003 (and (distinct (mod (ite $x217 (+ ?x229 (+ 0 (div ?x306 12))) ?x461) 100) 0) true)))
(let (($x560 (= (mod (ite $x217 (+ ?x229 (+ 0 (div ?x306 12))) ?x461) 4) 0)))
(let (($x339 (or (and $x560 $x3003) $x2797)))
(let ((?x202 (ite $x2978 5 (ite $x777 4 (ite $x376 3 (ite $x1931 2 1))))))
(let ((?x158 (ite $x420 9 (ite $x623 8 (ite $x1170 7 (ite $x429 6 ?x202))))))
(let ((?x1333 (ite $x217 ?x474 (ite $x2536 12 (ite $x2772 11 (ite $x1781 10 ?x158))))))
(let ((?x259 (ite (= 2 ?x1333) (ite $x339 31 31) (ite (= 1 ?x1333) (ite $x339 0 0) 0))))
(let ((?x1924 (ite (= 4 ?x1333) (ite $x339 91 90) (ite (= 3 ?x1333) (ite $x339 60 59) ?x259))))
(let ((?x182 (ite (= 6 ?x1333) (ite $x339 152 151) (ite (= 5 ?x1333) (ite $x339 121 120) ?x1924))))
(let ((?x642 (ite (= 8 ?x1333) (ite $x339 213 212) (ite (= 7 ?x1333) (ite $x339 182 181) ?x182))))
(let ((?x475 (ite (= 10 ?x1333) (ite $x339 274 273) (ite (= 9 ?x1333) (ite $x339 244 243) ?x642))))
(let ((?x222 (ite (= 12 ?x1333) (ite $x339 335 334) (ite (= 11 ?x1333) (ite $x339 305 304) ?x475))))
(let ((?x3280 (+ ?x229 (+ 0 (div ?x306 12)))))
(let ((?x2717 (ite $x217 ?x3280 ?x461)))
(let ((?x2571 (- ?x2717 1)))
(let ((?x805 (+ (- (+ (* 365 ?x2571) (div ?x2571 4)) (div ?x2571 100)) (div ?x2571 400))))
(= (- (+ (+ ?x805 ?x222) (- (ite $x217 ?x2794 ?x2495) 1)) ?x97) 6938))))))))))))))))))))))))))))))))))))))))))))))))))))))))))))))))))))))))))))))))))))))))))))))))))))))))))))))))))))))))))))))))))))))
(check-sat)
